lp_solve/benchmarks/bs.lp
Maximize

68 dSta_0 + 67 d0_8 + 36 d1_2.v0 + 6 d1_2.v1 + 2 d1_3.v0 + 2 d1_3.v1 + 2 d2_6.v0 + 2 d2_6.v1 + 2 d3_4.v0 + 2 d3_4.v1 + 1 d3_5.v0 + 1 d3_5.v1 + 2 d4_6.v0 + 2 d4_6.v1 + 2 d5_6.v0 + 2 d5_6.v1 + 2 d6_7.v0 + 2 d6_7.v1 + 38 d6_1.v0 + 8 d6_1.v1 + 36 d8_9 + 32 d8_10 + 31 d9_13 + 32 d10_11 + 30 d10_12 + 31 d11_13 + 31 d12_13 + 38 d13_1 + 2 d13_7


Subject to


\ === tcfg constraints ===
dSta_0 = 1
b0 - d0_8 = 0
b0 - dSta_0 = 0
b1 - d1_2 - d1_3 = 0
b1 - d6_1 - d13_1 = 0
b2 - d2_6 = 0
b2 - d1_2 = 0
b3 - d3_4 - d3_5 = 0
b3 - d1_3 = 0
b4 - d4_6 = 0
b4 - d3_4 = 0
b5 - d5_6 = 0
b5 - d3_5 = 0
b6 - d6_7 - d6_1 = 0
b6 - d2_6 - d4_6 - d5_6 = 0
b7 - d6_7 - d13_7 = 0
b8 - d8_9 - d8_10 = 0
b8 - d0_8 = 0
b9 - d9_13 = 0
b9 - d8_9 = 0
b10 - d10_11 - d10_12 = 0
b10 - d8_10 = 0
b11 - d11_13 = 0
b11 - d10_11 = 0
b12 - d12_13 = 0
b12 - d10_12 = 0
b13 - d13_1 - d13_7 = 0
b13 - d9_13 - d11_13 - d12_13 = 0


\ === context constraints ===

\(a)
d1_2 - d1_2.v0 - d1_2.v1 = 0
d1_3 - d1_3.v0 - d1_3.v1 = 0
d2_6 - d2_6.v0 - d2_6.v1 = 0
d3_4 - d3_4.v0 - d3_4.v1 = 0
d3_5 - d3_5.v0 - d3_5.v1 = 0
d4_6 - d4_6.v0 - d4_6.v1 = 0
d5_6 - d5_6.v0 - d5_6.v1 = 0
d6_7 - d6_7.v0 - d6_7.v1 = 0
d6_1 - d6_1.v0 - d6_1.v1 = 0

\(b)
b1.v0 - d1_2.v0 - d1_3.v0 = 0
b1.v1 - d1_2.v1 - d1_3.v1 = 0
b2.v0 - d2_6.v0 = 0
b2.v1 - d2_6.v1 = 0
b3.v0 - d3_4.v0 - d3_5.v0 = 0
b3.v1 - d3_4.v1 - d3_5.v1 = 0
b4.v0 - d4_6.v0 = 0
b4.v1 - d4_6.v1 = 0
b5.v0 - d5_6.v0 = 0
b5.v1 - d5_6.v1 = 0
b6.v0 - d6_7.v0 - d6_1.v0 = 0
b6.v1 - d6_7.v1 - d6_1.v1 = 0

\(c)
b1 - b1.v0 - b1.v1 = 0
b2 - b2.v0 - b2.v1 = 0
b3 - b3.v0 - b3.v1 = 0
b4 - b4.v0 - b4.v1 = 0
b5 - b5.v0 - b5.v1 = 0
b6 - b6.v0 - b6.v1 = 0

\(d)
b1.v0 - d13_1 = 0

\(e)
b1.v1 - d6_1.v0 - d6_1.v1 = 0
b1.v1 - 3 d6_1.v0 <= 0

\(f)
d6_7 - d6_7.v0 - d6_7.v1 = 0

\(g)
b2.v0 - d1_2.v0 = 0
b2.v1 - d1_2.v1 = 0
b3.v0 - d1_3.v0 = 0
b3.v1 - d1_3.v1 = 0
b4.v0 - d3_4.v0 = 0
b4.v1 - d3_4.v1 = 0
b5.v0 - d3_5.v0 = 0
b5.v1 - d3_5.v1 = 0
b6.v0 - d2_6.v0 - d4_6.v0 - d5_6.v0 = 0
b6.v1 - d2_6.v1 - d4_6.v1 - d5_6.v1 = 0

\ === header constraints ===
b0 <= 1
b1 - 4 b0 <= 0
b1 - 4 d13_1 <= 0

Generals

Sta
b0
d0_8
b1
d1_2
d1_3
b2
d2_6
b3
d3_4
d3_5
b4
d4_6
b5
d5_6
b6
d6_7
d6_1
b7
b8
d8_9
d8_10
b9
d9_13
b10
d10_11
d10_12
b11
d11_13
b12
d12_13
b13
d13_1
d13_7
b1.d0
b2.d0
b8.d0
b9.d0
d0_8
d1_2.v0
d1_2.v1
d1_3.v0
d1_3.v1
d2_6.v0
d2_6.v1
d3_4.v0
d3_4.v1
d3_5.v0
d3_5.v1
d4_6.v0
d4_6.v1
d5_6.v0
d5_6.v1
d6_7.v0
d6_7.v1
d6_1.v0
d6_1.v1
d8_9
d8_10
d9_13
d10_11
d10_12
d11_13
d12_13
d13_1
d13_7

End
\ total_cons: 71 	total_vars: 38
